p cnf 51 43
27 0
16 -28 0
17 -28 0
28 -29 0
5 -29 0
29 -30 0
7 -30 0
30 -31 0
20 -31 0
16 17 -32 0
32 -33 0
28 5 -33 0
33 -34 0
29 7 -34 0
34 -35 0
30 20 -35 0
35 -36 0
31 21 -36 0
32 5 -37 0
37 -38 0
33 7 -38 0
38 -39 0
34 20 -39 0
39 -40 0
35 21 -40 0
40 -41 0
36 8 -41 0
37 7 -42 0
42 -43 0
38 20 -43 0
43 -44 0
39 21 -44 0
42 20 -45 0
45 -46 0
43 21 -46 0
46 -47 0
44 8 -47 0
47 -48 0
41 9 -48 0
48 11 -49 0
49 12 -50 0
50 13 -51 0
51 0
